p edge 40 228
e 1 5
e 1 12
e 1 13
e 1 18
e 1 21
e 1 27
e 1 29
e 1 33
e 1 36
e 2 8
e 2 11
e 2 15
e 2 17
e 2 19
e 2 34
e 2 40
e 3 4
e 3 7
e 3 9
e 3 11
e 3 12
e 3 20
e 3 26
e 3 29
e 3 38
e 3 39
e 3 40
e 4 9
e 4 10
e 4 11
e 4 14
e 4 16
e 4 19
e 4 20
e 4 27
e 4 30
e 4 33
e 4 35
e 5 7
e 5 9
e 5 13
e 5 14
e 5 23
e 5 27
e 5 28
e 5 32
e 5 35
e 5 37
e 5 38
e 6 10
e 6 11
e 6 13
e 6 15
e 6 18
e 6 20
e 6 23
e 6 25
e 6 28
e 6 29
e 7 8
e 7 12
e 7 15
e 7 16
e 7 26
e 7 29
e 7 30
e 7 31
e 8 11
e 8 12
e 8 15
e 8 16
e 8 19
e 8 20
e 8 27
e 8 30
e 8 31
e 8 34
e 8 35
e 8 37
e 9 14
e 9 18
e 9 20
e 9 22
e 9 31
e 9 32
e 9 33
e 9 36
e 9 40
e 10 12
e 10 14
e 10 15
e 10 16
e 10 17
e 10 24
e 10 25
e 10 35
e 10 39
e 11 13
e 11 20
e 11 24
e 11 25
e 11 32
e 11 40
e 12 14
e 12 26
e 12 27
e 12 30
e 12 34
e 12 35
e 12 38
e 12 40
e 13 15
e 13 16
e 13 18
e 13 27
e 13 30
e 13 31
e 13 40
e 14 18
e 14 21
e 14 25
e 14 29
e 14 32
e 14 34
e 14 35
e 15 19
e 15 27
e 15 28
e 15 29
e 15 32
e 15 33
e 15 36
e 15 38
e 15 39
e 15 40
e 16 17
e 16 21
e 16 28
e 16 30
e 16 31
e 16 35
e 16 36
e 17 19
e 17 20
e 17 24
e 17 25
e 17 36
e 17 38
e 18 21
e 18 26
e 18 28
e 18 33
e 18 34
e 18 35
e 18 39
e 19 28
e 19 30
e 19 32
e 19 33
e 19 34
e 19 35
e 20 22
e 20 24
e 20 26
e 20 29
e 20 34
e 20 35
e 20 39
e 21 23
e 21 30
e 21 36
e 22 24
e 22 25
e 22 28
e 22 32
e 22 34
e 22 35
e 22 39
e 22 40
e 23 25
e 23 26
e 23 27
e 23 36
e 23 38
e 23 39
e 23 40
e 24 37
e 25 27
e 25 28
e 25 29
e 25 30
e 25 31
e 25 32
e 25 33
e 25 38
e 25 39
e 25 40
e 26 29
e 26 31
e 26 34
e 27 31
e 27 34
e 27 36
e 27 39
e 27 40
e 28 35
e 28 38
e 28 40
e 29 30
e 29 31
e 29 35
e 29 37
e 29 39
e 30 33
e 30 38
e 31 35
e 31 36
e 31 37
e 31 39
e 32 33
e 32 38
e 33 34
e 33 40
e 34 35
e 34 36
e 35 40
e 36 37
e 37 40